Optimal - objective value 5.84220527
      0 C0000000           49900                      -0
      1 C0000001           49900                      -0
      2 C0000002               1                      -0
      3 C0000003               2                      -0
      4 C0000004               3                      -0
      5 C0000005               1                      -0
      6 C0000006               1                      -0
      7 C0000007               1                      -0
      8 C0000008               0                      -0
      9 C0000009               0                      -0
     10 C0000010               1                      -0
     11 C0000011               0                      -0
     12 C0000012               0                      -0
     13 C0000013               1                      -0
     14 C0000014               0                      -0
     15 C0000015               0                      -0
     16 C0000016               0                      -0
     17 C0000017               1                      -0
     18 C0000018               0                      -0
     19 C0000019               1                      -0
     20 C0000020               0                      -0
     21 C0000021               1                      -0
     22 C0000022               0                      -0
     23 C0000023               1                      -0
     24 C0000024               1                      -0
     25 C0000025               0                      -0
     26 C0000026               2                      -0
     27 C0000027               0                      -0
     28 C0000028               0                      -0
     29 C0000029               0                      -0
     30 C0000030               0                      -0
     31 C0000031               0                      -0
     32 C0000032               0                      -0
     33 C0000033               0                      -0
     34 C0000034               0                      -0
     35 C0000035               0                      -0
     36 C0000036               0                      -0
     37 C0000037               0                      -0
     38 C0000038               0                      -0
     39 C0000039               1                      -0
     40 C0000040               0                      -0
     41 C0000041               1                      -0
     42 C0000042               0                      -0
     43 C0000043               0                      -0
     44 C0000044               0                      -0
     45 C0000045               0                      -0
     46 C0000046               0                      -0
     47 C0000047               0                      -0
     48 C0000048               0                      -0
     49 C0000049               0                      -0
     50 C0000050               0                      -0
     51 C0000051               0                      -0
     52 C0000052               0                      -0
     53 C0000053               0                      -0
     54 C0000054               0                      -0
     55 C0000055               0                      -0
     56 C0000056               0                      -0
     57 C0000057               0                      -0
     58 C0000058               0                      -0
     59 C0000059               0                      -0
     60 C0000060               0                      -0
     61 C0000061               0                      -0
     62 C0000062               0                      -0
     63 C0000063               0                      -0
     64 C0000064               0                      -0
     65 C0000065               0                      -0
     66 C0000066               0                      -0
     67 C0000067               0                      -0
     68 C0000068               0                      -0
     69 C0000069               0                      -0
     70 C0000070               1                      -0
     71 C0000071               0                      -0
     72 C0000072               0                      -0
     73 C0000073               0                      -0
     74 C0000074               1                      -0
     75 C0000075               0                      -0
     76 C0000076               0                      -0
     77 C0000077               0                      -0
     78 C0000078               0                      -0
     79 C0000079               0                      -0
     80 C0000080               0                      -0
     81 C0000081               0                      -0
     82 C0000082               0                      -0
     83 C0000083               0                      -0
     84 C0000084               0                      -0
     85 C0000085               0                      -0
     86 C0000086               0                      -0
     87 C0000087               0                      -0
     88 C0000088               0                      -0
     89 C0000089               0                      -0
     90 C0000090               0                      -0
     91 C0000091               0                      -0
     92 C0000092               0                      -0
     93 C0000093               0                      -0
     94 C0000094               1                      -0
     95 C0000095               0                      -0
     96 C0000096               0                      -0
     97 C0000097               0                      -0
     98 C0000098               0                      -0
     99 C0000099               0                      -0
    100 C0000100               0                      -0
    101 C0000101               0                      -0
    102 C0000102               0                      -0
    103 C0000103               0                      -0
    104 C0000104               0                      -0
    105 C0000105               0                      -0
    106 C0000106               0                      -0
    107 C0000107               0                      -0
    108 C0000108               0                      -0
    109 C0000109               0                      -0
    110 C0000110               1                      -0
    111 C0000111               0                      -0
    112 C0000112               0                      -0
    113 C0000113               0                      -0
    114 C0000114               0                      -0
    115 C0000115               0                      -0
    116 C0000116               0                      -0
    117 C0000117               0                      -0
    118 C0000118               0                      -0
    119 C0000119               0                      -0
    120 C0000120               0                      -0
    121 C0000121               0                      -0
    122 C0000122               0                      -0
    123 C0000123               0                      -0
    124 C0000124               0                      -0
    125 C0000125               0                      -0
    126 C0000126               0                      -0
    127 C0000127               0                      -0
    128 C0000128               0                      -0
    129 C0000129               0                      -0
    130 C0000130               0                      -0
    131 C0000131               0                      -0
    132 C0000132               0                      -0
    133 C0000133               0                      -0
    134 C0000134               0                      -0
    135 C0000135               0                      -0
    136 C0000136               0                      -0
    137 C0000137               0                      -0
    138 C0000138               0                      -0
    139 C0000139               0                      -0
    140 C0000140               0                      -0
    141 C0000141               1                      -0
    142 C0000142               1                      -0
    143 C0000143               0                      -0
    144 C0000144               0                      -0
    145 C0000145               0                      -0
    146 C0000146               0                      -0
    147 C0000147               0                      -0
    148 C0000148               0                      -0
    149 C0000149               0                      -0
    150 C0000150               0                      -0
    151 C0000151               0                      -0
    152 C0000152               0                      -0
    153 C0000153               0                      -0
    154 C0000154               0                      -0
    155 C0000155               1                      -0
    156 C0000156               0                      -0
    157 C0000157               0                      -0
    158 C0000158               0                      -0
    159 C0000159               0                      -0
    160 C0000160               0                      -0
    161 C0000161               0                      -0
    162 C0000162               0                      -0
    163 C0000163               0                      -0
    164 C0000164               0                      -0
    165 C0000165               0                      -0
    166 C0000166               0                      -0
    167 C0000167               0                      -0
    168 C0000168               0                      -0
    169 C0000169               0                      -0
    170 C0000170               0                      -0
    171 C0000171               0                      -0
    172 C0000172               0                      -0
    173 C0000173               0                      -0
    174 C0000174               0                      -0
    175 C0000175               0                      -0
    176 C0000176               0                      -0
    177 C0000177               0                      -0
    178 C0000178               0                      -0
    179 C0000179               0                      -0
    180 C0000180               0                      -0
    181 C0000181               0                      -0
    182 C0000182               0                      -0
    183 C0000183               0                      -0
    184 C0000184               0                      -0
    185 C0000185               0                      -0
    186 C0000186               0                      -0
    187 C0000187               0                      -0
    188 C0000188               0                      -0
    189 C0000189               0                      -0
    190 C0000190               0                      -0
    191 C0000191               0                      -0
    192 C0000192               0                      -0
    193 C0000193               0                      -0
    194 C0000194               0                      -0
    195 C0000195          100.97                      -0
    196 C0000196           140.9                      -0
    197 C0000197               8                      -0
      0 X0000000               0             -0.21023754
      1 X0000001               0              0.66001817
      2 X0000002               0              0.66001817
      3 X0000003               0              0.53233116
      4 X0000004               0              0.53233116
      5 X0000005               0              0.96297756
      6 X0000006               0              0.52952879
      7 X0000007               0              0.52952879
      8 X0000008               0               0.2867236
      9 X0000009               0               0.2867236
     10 X0000010               1                       1
     11 X0000011               0              0.44235586
     12 X0000012               0              0.44235586
     13 X0000013               0              0.45835988
     14 X0000014               0              0.45835988
     15 X0000015               0              0.41442549
     16 X0000016               0              0.41442549
     17 X0000017               0              0.32657567
     18 X0000018               0              0.32657567
     19 X0000019               0              0.65595692
     20 X0000020               0              0.65595692
     21 X0000021               0              0.33362015
     22 X0000022               0              0.33362015
     23 X0000023               0              0.66653684
     24 X0000024               0              0.20281738
     25 X0000025               0              0.20281738
     26 X0000026               0            -0.054852339
     27 X0000027               0            -0.054852339
     28 X0000028               0             0.098649509
     29 X0000029               0             0.018832165
     30 X0000030               0             0.018832165
     31 X0000031               0              0.25584678
     32 X0000032               0              0.65856127
     33 X0000033               0              0.65856127
     34 X0000034               0              0.28163849
     35 X0000035               0              0.16469527
     36 X0000036               0              0.16469527
     37 X0000037               0              0.52653918
     38 X0000038               0              0.52653918
     39 X0000039               0              0.44524287
     40 X0000040               0              0.44524287
     41 X0000041               0              0.50518711
     42 X0000042               0              0.50518711
     43 X0000043               0              0.60341496
     44 X0000044               0              0.60341496
     45 X0000045               0              0.63413591
     46 X0000046               0              0.63413591
     47 X0000047               0               0.8240831
     48 X0000048               0             -0.16388205
     49 X0000049               0              0.84470598
     50 X0000050               0              0.66324482
     51 X0000051               0              0.49210682
     52 X0000052               0              0.49210682
     53 X0000053               0              0.19164888
     54 X0000054               0              0.19164888
     55 X0000055               0                0.185455
     56 X0000056               0              0.71316909
     57 X0000057               1              0.71316909
     58 X0000058               0             0.097907055
     59 X0000059               0             0.097907055
     60 X0000060               0              0.60980159
     61 X0000061               0              0.60980159
     62 X0000062               0              0.30021647
     63 X0000063               0              0.30021647
     64 X0000064               0              0.21529337
     65 X0000065               0             -0.12066275
     66 X0000066               0              0.47985064
     67 X0000067               0              0.47985064
     68 X0000068               0             0.076462756
     69 X0000069               0             0.076462756
     70 X0000070               0              0.43429522
     71 X0000071               0              0.43429522
     72 X0000072               0              0.44800115
     73 X0000073               0              0.44800115
     74 X0000074               1              0.63342513
     75 X0000075               0              0.63342513
     76 X0000076               0              0.44436711
     77 X0000077               0              0.44436711
     78 X0000078               0             0.086893989
     79 X0000079               0             0.086893989
     80 X0000080               0              0.24451012
     81 X0000081               0              0.24451012
     82 X0000082               0              0.35285928
     83 X0000083               0              0.35285928
     84 X0000084               0              0.64189652
     85 X0000085               0              0.64189652
     86 X0000086               0              0.34986976
     87 X0000087               0              0.34986976
     88 X0000088               0              0.63769232
     89 X0000089               0              0.63769232
     90 X0000090               0              0.49538311
     91 X0000091               0              0.49538311
     92 X0000092               0              0.52489927
     93 X0000093               0              0.52489927
     94 X0000094               0              0.34634481
     95 X0000095               0              0.34634481
     96 X0000096               0              0.27602701
     97 X0000097               0              0.27602701
     98 X0000098               0              0.22765813
     99 X0000099               0              0.22765813
    100 X0000100               0              0.20711092
    101 X0000101               0              0.20711092
    102 X0000102               0              0.17037645
    103 X0000103               0              0.90633769
    104 X0000104               0              0.51484545
    105 X0000105               0              0.51484545
    106 X0000106               0              0.75117666
    107 X0000107               0              0.81661686
    108 X0000108               0               0.2393372
    109 X0000109               0               0.2393372
    110 X0000110               0              0.21034915
    111 X0000111               0              0.54933551
    112 X0000112               0              0.54933551
    113 X0000113               1               0.2676229
    114 X0000114               0              0.51547428
    115 X0000115               0              0.51547428
    116 X0000116               0              0.92060678
    117 X0000117               0              0.68628275
    118 X0000118               1              0.68628275
    119 X0000119               0             -0.13075389
    120 X0000120               0              0.27970675
    121 X0000121               0              0.27970675
    122 X0000122               0              0.49502444
    123 X0000123               0              0.49502444
    124 X0000124               0              0.24168849
    125 X0000125               0              0.24168849
    126 X0000126               0              0.69687926
    127 X0000127               0              0.69687926
    128 X0000128               0             0.035838504
    129 X0000129               0             0.035838504
    130 X0000130               0              0.17512482
    131 X0000131               0              0.80268319
    132 X0000132               1              0.80268319
    133 X0000133               0              0.56753962
    134 X0000134               0              0.56753962
    135 X0000135               0              0.55757744
    136 X0000136               1              0.55757744
    137 X0000137               0              0.67385035
    138 X0000138               0              0.66526021
    139 X0000139               0              0.66526021
    140 X0000140               0              0.47783655
    141 X0000141               0              0.47783655
    142 X0000142               0               0.5880671
    143 X0000143               0               0.5880671
    144 X0000144               0               0.9741357
    145 X0000145               0              0.62378648
    146 X0000146               0              0.62378648
    147 X0000147               0               0.5435913
    148 X0000148               0               0.5435913
    149 X0000149               0              0.86134033
    150 X0000150               0              0.32100514
    151 X0000151               0              0.32100514
    152 X0000152               0              0.40826994
    153 X0000153               0              0.40826994
    154 X0000154               0              0.52766296
    155 X0000155               0              0.52766296
    156 X0000156               0             -0.12438208
    157 X0000157               0              0.84820354
    158 X0000158               0              0.55195644
    159 X0000159               0              0.55195644
    160 X0000160               0              0.56351032
    161 X0000161               0              0.56351032
    162 X0000162               0              0.57381285
    163 X0000163               0              0.57381285
    164 X0000164               0              0.18676954
    165 X0000165               0              0.18676954
    166 X0000166               0              0.85064444
    167 X0000167               0              0.52728794
    168 X0000168               0              0.52728794
    169 X0000169               0              0.62765396
    170 X0000170               0              0.62765396
    171 X0000171               0              0.32728558
    172 X0000172               0              0.32728558
    173 X0000173               0              0.54087292
    174 X0000174               0              0.54087292
    175 X0000175               0              0.17986928
    176 X0000176               0              0.17986928
    177 X0000177               0              0.15763256
    178 X0000178               0              0.15763256
    179 X0000179               0              0.50167634
    180 X0000180               0              0.50167634
    181 X0000181               0              0.37149779
    182 X0000182               0              0.37149779
    183 X0000183               0              0.62412315
    184 X0000184               0              0.62412315
    185 X0000185               0              0.35974912
    186 X0000186               0              0.35974912
    187 X0000187               0              0.70790598
    188 X0000188               0              0.60040856
    189 X0000189               0              0.60040856
    190 X0000190               0             -0.25013904
    191 X0000191               0               0.6358314
    192 X0000192               0               0.6630662
    193 X0000193               1               0.6630662
    194 X0000194               0              0.33485482
    195 X0000195               0              0.33485482
    196 X0000196               0              0.53014903
    197 X0000197               0              0.53014903
    198 X0000198               0              0.78044199
    199 X0000199               0              0.75264573
    200 X0000200               0              0.18119826
    201 X0000201               0              0.18119826
    202 X0000202               0              0.73540433
    203 X0000203               0              0.50893017
    204 X0000204               0              0.50893017
    205 X0000205               0              0.33166688
    206 X0000206               0              0.33166688
    207 X0000207               0              0.34009189
    208 X0000208               0              0.34009189
    209 X0000209               0              0.44100593
    210 X0000210               0              0.44100593
    211 X0000211               0             0.076235393
    212 X0000212               0             0.076235393
    213 X0000213               0              0.32797418
    214 X0000214               0              0.32797418
    215 X0000215               0             -0.11969488
    216 X0000216               0              0.36389882
    217 X0000217               0              0.36389882
    218 X0000218               0              0.39990057
    219 X0000219               0              0.39990057
    220 X0000220               0              0.67013163
    221 X0000221               0              0.67013163
    222 X0000222               0              0.21268998
    223 X0000223               0              0.21268998
    224 X0000224               0             -0.14860884
    225 X0000225               0              0.18028728
    226 X0000226               0              0.20290689
    227 X0000227               0              0.20290689
    228 X0000228               0              0.40674446
    229 X0000229               0              0.40674446
    230 X0000230               0              0.45214651
    231 X0000231               0              0.45214651
    232 X0000232               0             -0.17471353
    233 X0000233               0             -0.17471353
    234 X0000234               0              0.42298331
    235 X0000235               0              0.42298331
    236 X0000236               0              0.14008523
    237 X0000237               0              0.14008523
    238 X0000238               0               0.7386348
    239 X0000239               0              0.42970813
    240 X0000240               0              0.42970813
    241 X0000241               0              0.62953466
    242 X0000242               0              0.62953466
    243 X0000243               0             -0.16998636
    244 X0000244               0              0.48581109
    245 X0000245               0              0.48581109
    246 X0000246               0              0.27776854
    247 X0000247               0              0.27776854
    248 X0000248               0              0.68009575
    249 X0000249               0              0.68009575
    250 X0000250               0              0.69818035
    251 X0000251               0              0.69818035
    252 X0000252               0             0.036479304
    253 X0000253               0             0.036479304
    254 X0000254               0             -0.14557775
    255 X0000255               0              0.47179028
    256 X0000256               0              0.47179028
    257 X0000257               0              0.42023107
    258 X0000258               0              0.42023107
    259 X0000259               0              0.44010786
    260 X0000260               0              0.44010786
    261 X0000261               0              0.19304208
    262 X0000262               0              0.19304208
    263 X0000263               0               0.5860835
    264 X0000264               0               0.5860835
    265 X0000265               0              0.68541985
    266 X0000266               0              0.20922368
    267 X0000267               0              0.20922368
    268 X0000268               0              0.29812409
    269 X0000269               0              0.29812409
    270 X0000270               0              0.26526969
    271 X0000271               0              0.26526969
    272 X0000272               0              0.25163415
    273 X0000273               0              0.25163415
    274 X0000274               0              0.23214719
    275 X0000275               0              0.23214719
    276 X0000276               0              0.24290275
    277 X0000277               0              0.24290275
    278 X0000278               0               0.5404913
    279 X0000279               0               0.5404913
    280 X0000280               0              0.47211722
    281 X0000281               0              0.47211722
    282 X0000282               0              0.18650408
    283 X0000283               0              0.51837857
    284 X0000284               1              0.51837857
    285 X0000285               0              0.28244953
    286 X0000286               0              0.28244953
